DIMENSION: 24
EDGE_WEIGHT_TYPE: EXPLICIT
EDGE_WEIGHT_FORMAT: FULL_MATRIX
EDGE_WEIGHT_SECTION:
32767 32767 32767 32767 32767 32767 32767 32767 32767 44 32767 32767 32767 32767 30 32767 24 32767 32767 53 32767 92 50 32767 
32767 32767 46 32767 69 62 32767 32767 53 32767 32767 32767 61 32767 56 32767 70 32767 74 32767 66 32767 32767 32767 
32767 46 32767 90 32767 10 32767 32767 78 32767 90 32767 32767 32767 2 32767 32767 66 100 32767 71 82 76 27 
32767 32767 90 32767 32767 74 60 32767 32767 32767 32767 32767 32767 32767 47 32767 32767 46 32767 89 32767 32767 15 32767 
32767 69 32767 32767 32767 32767 32767 32767 51 7 32767 66 32767 32767 8 32767 13 32767 32767 32767 5 56 32767 99 
32767 62 10 74 32767 32767 32767 13 32767 32767 32767 29 32767 36 32767 32767 21 7 32767 32767 32767 42 29 32767 
32767 32767 32767 60 32767 32767 32767 32767 32767 32767 32767 15 19 32767 32767 16 32767 4 32767 32767 32767 32767 32767 44 
32767 32767 32767 32767 32767 13 32767 32767 66 32767 32767 79 32767 32767 40 32767 32767 39 11 32767 32767 50 7 32767 
32767 53 78 32767 51 32767 32767 66 32767 43 32 32767 22 96 32767 32767 32767 32767 68 32767 32767 89 20 3 
44 32767 32767 32767 7 32767 32767 32767 43 32767 37 29 8 55 32767 80 32767 32767 32767 32767 32767 15 32767 32767 
32767 32767 90 32767 32767 32767 32767 32767 32 37 32767 32767 25 8 32767 32767 32767 68 35 32767 32767 93 50 77 
32767 32767 32767 32767 66 29 15 79 32767 29 32767 32767 32767 32767 32767 40 32767 32767 78 32767 32767 32767 32767 93 
32767 61 32767 32767 32767 32767 19 32767 22 8 25 32767 32767 64 32767 17 4 32767 32767 32767 1 32767 32767 32767 
32767 32767 32767 32767 32767 36 32767 32767 96 55 8 32767 64 32767 32767 30 50 27 20 32767 32767 97 32767 89 
30 56 2 47 8 32767 32767 40 32767 32767 32767 32767 32767 32767 32767 32767 21 88 59 32767 32767 57 64 32767 
32767 32767 32767 32767 32767 32767 16 32767 32767 80 32767 40 17 30 32767 32767 32767 22 32767 32767 78 29 32767 15 
24 70 32767 32767 13 21 32767 32767 32767 32767 32767 32767 4 50 21 32767 32767 94 32767 32767 32767 32767 32767 6 
32767 32767 66 46 32767 7 4 39 32767 32767 68 32767 32767 27 88 22 94 32767 75 31 32767 32767 32767 32767 
32767 74 100 32767 32767 32767 32767 11 68 32767 35 78 32767 20 59 32767 32767 75 32767 32767 32767 33 67 59 
53 32767 32767 89 32767 32767 32767 32767 32767 32767 32767 32767 32767 32767 32767 32767 32767 31 32767 32767 32767 32767 32767 32767 
32767 66 71 32767 5 32767 32767 32767 32767 32767 32767 32767 1 32767 32767 78 32767 32767 32767 32767 32767 32767 32767 32767 
92 32767 82 32767 56 42 32767 50 89 15 93 32767 32767 97 57 29 32767 32767 33 32767 32767 32767 32767 32767 
50 32767 76 15 32767 29 32767 7 20 32767 50 32767 32767 32767 64 32767 32767 32767 67 32767 32767 32767 32767 58 
32767 32767 27 32767 99 32767 44 32767 3 32767 77 93 32767 89 32767 15 6 32767 59 32767 32767 32767 58 32767 
EOF